c Result of efficient AIG-to-CNF conversion using package CNF
p cnf 712 2626
2 3 -565 0
2 3 -5 0
2 3 -298 0
-2 -3 0
-2 5 298 565 0
-3 683 4 0
3 -683 0
3 -4 0
-4 680 681 682 0
4 -680 0
4 -682 0
4 -681 0
-5 6 231 283 289 0
5 -231 0
5 -289 0
5 -6 0
5 -283 0
-6 7 -164 194 0
-6 7 176 194 0
6 -7 0
6 -194 0
6 164 -176 0
7 8 -132 0
7 -708 8 -40 0
-7 -8 0
-7 40 132 0
-7 708 132 0
8 -9 21 0
-8 9 0
-8 -21 0
9 708 -10 0
9 -708 -17 0
-9 -708 17 0
-9 708 10 0
10 709 -11 0
10 -709 -14 0
-10 -709 14 0
-10 709 11 0
11 -710 -13 0
11 710 -12 0
-11 710 12 0
-11 -710 13 0
-12 668 711 0
-12 669 -711 0
12 -669 -711 0
12 -668 711 0
-13 670 711 0
-13 671 -711 0
13 -671 -711 0
13 -670 711 0
14 -710 -16 0
14 710 -15 0
-14 710 15 0
-14 -710 16 0
-15 672 711 0
-15 673 -711 0
15 -673 -711 0
15 -672 711 0
-16 674 711 0
-16 675 -711 0
16 -675 -711 0
16 -674 711 0
17 709 -18 0
-17 -709 0
-17 18 0
18 -710 -20 0
18 710 -19 0
-18 710 19 0
-18 -710 20 0
-19 676 711 0
-19 677 -711 0
19 -677 -711 0
19 -676 711 0
-20 678 711 0
-20 679 -711 0
20 -679 -711 0
20 -678 711 0
-21 22 24 25 0
21 -22 0
21 -24 0
21 -25 0
-22 685 686 23 0
22 -23 0
22 -686 0
22 -685 0
-23 682 683 684 0
23 -682 0
23 -684 0
23 -683 0
-24 680 681 0
24 -680 0
24 -681 0
-25 687 26 0
25 -687 0
25 -26 0
-26 688 27 34 38 0
26 -688 0
26 -38 0
26 -34 0
26 -27 0
-27 28 31 0
27 -28 0
27 -31 0
-28 697 29 30 0
28 -30 0
28 -29 0
28 -697 0
-29 695 696 0
29 -695 0
29 -696 0
-30 700 701 0
30 -700 0
30 -701 0
-31 691 32 33 0
31 -33 0
31 -32 0
31 -691 0
-32 689 690 0
32 -689 0
32 -690 0
-33 698 699 0
33 -698 0
33 -699 0
-34 35 36 0
34 -35 0
34 -36 0
-35 692 693 694 0
35 -692 0
35 -694 0
35 -693 0
-36 706 37 0
36 -706 0
36 -37 0
-37 704 705 0
37 -704 0
37 -705 0
-38 707 39 0
38 -707 0
38 -39 0
-39 702 703 0
39 -702 0
39 -703 0
40 709 -41 0
40 -709 -97 0
-40 -709 97 0
-40 709 41 0
41 710 -42 0
41 -710 -73 0
-41 -710 73 0
-41 710 42 0
42 711 -43 0
42 -711 -62 0
-42 -711 62 0
-42 711 43 0
43 -708 44 -60 0
43 708 44 -53 0
-43 -44 0
-43 -708 60 0
-43 708 53 0
-44 707 45 46 47 0
44 -707 0
44 -47 0
44 -46 0
44 -45 0
-45 681 682 683 0
45 -681 0
45 -683 0
45 -682 0
-46 684 685 686 0
46 -684 0
46 -686 0
46 -685 0
-47 30 48 49 50 0
47 -50 0
47 -30 0
47 -49 0
47 -48 0
-48 691 33 0
48 -691 0
48 -33 0
-49 36 39 0
49 -36 0
49 -39 0
-50 687 688 32 51 0
50 -687 0
50 -51 0
50 -32 0
50 -688 0
-51 35 52 0
51 -35 0
51 -52 0
-52 697 29 0
52 -697 0
52 -29 0
-53 709 57 0
-53 -709 54 0
53 -709 -54 0
53 709 -57 0
54 -710 -56 0
54 710 -55 0
-54 710 55 0
-54 -710 56 0
-55 668 711 0
-55 670 -711 0
55 -670 -711 0
55 -668 711 0
-56 672 711 0
-56 674 -711 0
56 -674 -711 0
56 -672 711 0
57 -710 -59 0
57 710 -58 0
-57 710 58 0
-57 -710 59 0
-58 660 711 0
-58 662 -711 0
58 -662 -711 0
58 -660 711 0
-59 664 711 0
-59 666 -711 0
59 -666 -711 0
59 -664 711 0
60 709 -61 0
-60 -709 0
-60 61 0
61 -676 710 711 0
61 -678 710 -711 0
-61 -710 0
-61 678 -711 0
-61 676 711 0
62 -708 44 -70 0
62 708 44 -63 0
-62 -44 0
-62 -708 70 0
-62 708 63 0
-63 709 67 0
-63 -709 64 0
63 -709 -64 0
63 709 -67 0
64 -710 -66 0
64 710 -65 0
-64 710 65 0
-64 -710 66 0
-65 667 711 0
-65 669 -711 0
65 -669 -711 0
65 -667 711 0
-66 671 711 0
-66 673 -711 0
66 -673 -711 0
66 -671 711 0
67 -710 -69 0
67 710 -68 0
-67 710 68 0
-67 -710 69 0
-68 659 711 0
-68 661 -711 0
68 -661 -711 0
68 -659 711 0
-69 663 711 0
-69 665 -711 0
69 -665 -711 0
69 -663 711 0
70 709 -71 0
-70 -709 0
-70 71 0
-71 679 -710 0
-71 710 72 0
-71 -710 -711 0
71 710 -72 0
71 -679 -710 711 0
-72 675 711 0
-72 677 -711 0
72 -677 -711 0
72 -675 711 0
73 711 -74 0
73 -711 -85 0
-73 -711 85 0
-73 711 74 0
74 -708 44 -82 0
74 708 44 -75 0
-74 -44 0
-74 -708 82 0
-74 708 75 0
-75 709 79 0
-75 -709 76 0
75 -709 -76 0
75 709 -79 0
76 -710 -78 0
76 710 -77 0
-76 710 77 0
-76 -710 78 0
-77 666 711 0
-77 668 -711 0
77 -668 -711 0
77 -666 711 0
-78 670 711 0
-78 672 -711 0
78 -672 -711 0
78 -670 711 0
79 -710 -81 0
79 710 -80 0
-79 710 80 0
-79 -710 81 0
-80 658 711 0
-80 660 -711 0
80 -660 -711 0
80 -658 711 0
-81 662 711 0
-81 664 -711 0
81 -664 -711 0
81 -662 711 0
82 709 -83 0
-82 -709 0
-82 83 0
83 710 -84 0
83 -678 -710 711 0
-83 678 -710 0
-83 710 84 0
-83 -710 -711 0
-84 674 711 0
-84 676 -711 0
84 -676 -711 0
84 -674 711 0
85 -708 44 -93 0
85 708 44 -86 0
-85 -44 0
-85 -708 93 0
-85 708 86 0
-86 709 90 0
-86 -709 87 0
86 -709 -87 0
86 709 -90 0
87 -710 -89 0
87 710 -88 0
-87 710 88 0
-87 -710 89 0
-88 665 711 0
-88 667 -711 0
88 -667 -711 0
88 -665 711 0
-89 669 711 0
-89 671 -711 0
89 -671 -711 0
89 -669 711 0
90 -710 -92 0
90 710 -91 0
-90 710 91 0
-90 -710 92 0
-91 657 711 0
-91 659 -711 0
91 -659 -711 0
91 -657 711 0
-92 661 711 0
-92 663 -711 0
92 -663 -711 0
92 -661 711 0
93 709 -94 0
-93 -709 0
-93 94 0
94 -710 -96 0
94 710 -95 0
-94 710 95 0
-94 -710 96 0
-95 673 711 0
-95 675 -711 0
95 -675 -711 0
95 -673 711 0
-96 677 711 0
-96 679 -711 0
96 -679 -711 0
96 -677 711 0
97 710 -98 0
97 -710 -115 0
-97 -710 115 0
-97 710 98 0
98 711 -99 0
98 -711 -107 0
-98 -711 107 0
-98 711 99 0
99 -708 44 -104 0
99 708 44 -100 0
-99 -44 0
-99 -708 104 0
-99 708 100 0
-100 709 102 0
-100 -709 101 0
100 -709 -101 0
100 709 -102 0
101 710 -59 0
101 -710 -55 0
-101 -710 55 0
-101 710 59 0
102 710 -103 0
102 -710 -58 0
-102 -710 58 0
-102 710 103 0
-103 656 711 0
-103 658 -711 0
103 -658 -711 0
103 -656 711 0
104 709 -105 0
-104 -709 0
-104 105 0
105 -710 -106 0
105 710 -56 0
-105 710 56 0
-105 -710 106 0
-106 676 711 0
-106 678 -711 0
106 -678 -711 0
106 -676 711 0
107 708 44 -108 0
107 -708 44 -112 0
-107 -44 0
-107 -708 112 0
-107 708 108 0
-108 709 109 0
-108 -709 111 0
108 -709 -111 0
108 709 -109 0
-109 -710 68 0
-109 710 110 0
109 710 -110 0
109 -710 -68 0
-110 655 711 0
-110 657 -711 0
110 -657 -711 0
110 -655 711 0
111 710 -69 0
111 -710 -65 0
-111 -710 65 0
-111 710 69 0
-112 709 114 0
-112 -709 113 0
112 -709 -113 0
112 709 -114 0
113 -679 710 711 0
-113 679 0
-113 -711 0
-113 -710 0
114 -710 -72 0
114 710 -66 0
-114 710 66 0
-114 -710 72 0
115 711 -116 0
115 -711 -124 0
-115 -711 124 0
-115 711 116 0
116 -708 44 -121 0
116 708 44 -117 0
-116 -44 0
-116 -708 121 0
-116 708 117 0
-117 709 118 0
-117 -709 120 0
117 -709 -120 0
117 709 -118 0
-118 -710 80 0
-118 710 119 0
118 710 -119 0
118 -710 -80 0
-119 654 711 0
-119 656 -711 0
119 -656 -711 0
119 -654 711 0
120 710 -81 0
120 -710 -77 0
-120 -710 77 0
-120 710 81 0
121 709 -123 0
121 -709 710 -122 0
-121 -709 -710 0
-121 709 123 0
-121 -709 122 0
122 -678 711 0
-122 678 0
-122 -711 0
123 -710 -84 0
123 710 -78 0
-123 710 78 0
-123 -710 84 0
124 -708 44 -129 0
124 708 44 -125 0
-124 -44 0
-124 -708 129 0
-124 708 125 0
-125 709 126 0
-125 -709 128 0
125 -709 -128 0
125 709 -126 0
-126 -710 91 0
-126 710 127 0
126 710 -127 0
126 -710 -91 0
-127 653 711 0
-127 655 -711 0
127 -655 -711 0
127 -653 711 0
128 710 -92 0
128 -710 -88 0
-128 -710 88 0
-128 710 92 0
129 709 -130 0
129 -709 -131 0
-129 -709 131 0
-129 709 130 0
130 -710 -95 0
130 710 -89 0
-130 710 89 0
-130 -710 95 0
131 -677 710 711 0
131 -679 710 -711 0
-131 -710 0
-131 679 -711 0
-131 677 711 0
132 709 -133 0
132 -709 -149 0
-132 -709 149 0
-132 709 133 0
133 710 -134 0
133 -710 -144 0
-133 -710 144 0
-133 710 134 0
134 711 -135 0
134 -711 -142 0
-134 -711 142 0
-134 711 135 0
135 136 -141 0
-135 -136 0
-135 141 0
-136 45 137 138 139 0
136 -139 0
136 -45 0
136 -138 0
136 -137 0
-137 684 29 35 49 0
137 -684 0
137 -49 0
137 -35 0
137 -29 0
-138 685 686 687 688 0
138 -688 0
138 -687 0
138 -685 0
138 -686 0
-139 697 30 31 140 0
139 -697 0
139 -140 0
139 -31 0
139 -30 0
-140 707 708 0
140 -707 0
140 -708 0
141 709 -54 0
141 -709 -61 0
-141 -709 61 0
-141 709 54 0
142 136 -143 0
-142 -136 0
-142 143 0
143 709 -64 0
143 -709 -71 0
-143 -709 71 0
-143 709 64 0
144 711 -145 0
144 -711 -147 0
-144 -711 147 0
-144 711 145 0
145 136 -146 0
-145 -136 0
-145 146 0
146 709 -76 0
146 -709 -83 0
-146 -709 83 0
-146 709 76 0
147 136 -148 0
-147 -136 0
-147 148 0
148 709 -87 0
148 -709 -94 0
-148 -709 94 0
-148 709 87 0
149 710 -150 0
149 -710 -157 0
-149 -710 157 0
-149 710 150 0
150 711 -151 0
150 -711 -153 0
-150 -711 153 0
-150 711 151 0
151 136 -152 0
-151 -136 0
-151 152 0
152 709 -101 0
152 -709 -105 0
-152 -709 105 0
-152 709 101 0
153 44 -154 0
153 44 -156 0
-153 -44 0
-153 154 156 0
154 -708 -155 0
-154 708 0
-154 155 0
155 -679 709 710 711 0
-155 -711 0
-155 -710 0
-155 679 0
-155 -709 0
156 708 -709 -114 0
156 708 709 -111 0
-156 -708 0
-156 -709 114 0
-156 709 111 0
157 711 -158 0
157 -711 -161 0
-157 -711 161 0
-157 711 158 0
158 -708 44 -160 0
158 708 44 -159 0
-158 -44 0
-158 -708 160 0
-158 708 159 0
-159 -709 123 0
-159 709 120 0
159 709 -120 0
159 -709 -123 0
160 -678 709 710 711 0
-160 -711 0
-160 -710 0
-160 678 0
-160 -709 0
161 -708 44 -163 0
161 708 44 -162 0
-161 -44 0
-161 -708 163 0
-161 708 162 0
-162 -709 130 0
-162 709 128 0
162 709 -128 0
162 -709 -130 0
163 709 -131 0
-163 -709 0
-163 131 0
164 26 165 -168 0
-164 -26 0
-164 -165 0
-164 168 0
-165 686 687 166 0
165 -166 0
165 -687 0
165 -686 0
-166 4 167 0
166 -4 0
166 -167 0
-167 683 684 685 0
167 -683 0
167 -685 0
167 -684 0
-168 708 169 0
-168 -708 155 0
168 -708 -155 0
168 708 -169 0
169 709 -170 0
169 -709 -173 0
-169 -709 173 0
-169 709 170 0
170 -710 -172 0
170 710 -171 0
-170 710 171 0
-170 -710 172 0
-171 671 711 0
-171 672 -711 0
171 -672 -711 0
171 -671 711 0
-172 673 711 0
-172 674 -711 0
172 -674 -711 0
172 -673 711 0
173 -710 -175 0
173 710 -174 0
-173 710 174 0
-173 -710 175 0
-174 675 711 0
-174 676 -711 0
174 -676 -711 0
174 -675 711 0
-175 677 711 0
-175 678 -711 0
175 -678 -711 0
175 -677 711 0
176 708 -177 0
176 -708 -187 0
-176 -708 187 0
-176 708 177 0
177 709 -178 0
177 -709 -184 0
-177 -709 184 0
-177 709 178 0
178 710 -179 0
178 -710 -182 0
-178 -710 182 0
-178 710 179 0
179 711 -180 0
179 -711 -181 0
-179 -711 181 0
-179 711 180 0
180 -112 136 0
-180 112 0
-180 -136 0
181 -121 136 0
-181 121 0
-181 -136 0
182 -711 -135 0
182 711 -183 0
-182 711 183 0
-182 -711 135 0
183 -129 136 0
-183 129 0
-183 -136 0
184 710 -185 0
184 -710 -186 0
-184 -710 186 0
-184 710 185 0
185 711 -142 0
185 -711 -145 0
-185 -711 145 0
-185 711 142 0
186 711 -147 0
186 -711 -151 0
-186 -711 151 0
-186 711 147 0
187 709 -188 0
187 -709 -191 0
-187 -709 191 0
-187 709 188 0
188 710 -189 0
188 -710 -190 0
-188 -710 190 0
-188 710 189 0
189 711 -153 0
189 -711 -158 0
-189 -711 158 0
-189 711 153 0
190 -711 -43 0
190 711 -161 0
-190 711 161 0
-190 -711 43 0
191 710 -192 0
191 -710 -193 0
-191 -710 193 0
-191 710 192 0
192 711 -62 0
192 -711 -74 0
-192 -711 74 0
-192 711 62 0
193 711 -85 0
193 -711 -99 0
-193 -711 99 0
-193 711 85 0
-194 195 213 227 0
-194 195 213 -223 0
194 -195 0
194 -213 0
194 223 -227 0
195 196 -210 0
195 -710 196 -207 0
-195 -196 0
-195 207 210 0
-195 710 210 0
196 167 -197 200 203 0
-196 -203 0
-196 -167 0
-196 -200 0
-196 197 0
197 708 -198 0
-197 -708 0
-197 198 0
198 709 -199 0
-198 -709 0
-198 199 0
-199 679 -710 0
-199 710 175 0
-199 -710 -711 0
199 710 -175 0
199 -679 -710 711 0
-200 36 201 0
200 -36 0
200 -201 0
-201 30 202 0
201 -30 0
201 -202 0
-202 707 33 39 0
202 -39 0
202 -33 0
202 -707 0
-203 35 204 206 0
203 -35 0
203 -204 0
203 -206 0
-204 686 687 688 205 0
204 -205 0
204 -688 0
204 -686 0
204 -687 0
-205 691 32 0
205 -691 0
205 -32 0
-206 4 52 0
206 -4 0
206 -52 0
207 711 -208 0
207 -711 -209 0
-207 -711 209 0
-207 711 208 0
208 -70 136 0
-208 70 0
-208 -136 0
209 -82 136 0
-209 82 0
-209 -136 0
210 711 -211 0
210 -711 -212 0
-210 -711 212 0
-210 711 211 0
211 136 -163 0
-211 -136 0
-211 163 0
212 -60 136 0
-212 60 0
-212 -136 0
213 709 214 -219 0
213 -709 -133 214 0
-213 -214 0
-213 -709 133 0
-213 709 219 0
214 166 215 -216 218 0
-214 -218 0
-214 -166 0
-214 216 0
-214 -215 0
-215 28 202 0
215 -28 0
215 -202 0
216 708 -217 0
-216 -708 0
-216 217 0
217 709 -14 0
217 -709 -18 0
-217 -709 18 0
-217 709 14 0
-218 34 204 0
218 -34 0
218 -204 0
219 710 -220 0
219 -710 -222 0
-219 -710 222 0
-219 710 220 0
220 -711 -180 0
220 711 -221 0
-220 711 221 0
-220 -711 180 0
221 -104 136 0
-221 104 0
-221 -136 0
222 711 -181 0
222 -711 -183 0
-222 -711 183 0
-222 711 181 0
223 224 225 -226 0
-223 -224 0
-223 -225 0
-223 226 0
-224 201 218 0
224 -201 0
224 -218 0
-225 167 206 0
225 -167 0
225 -206 0
226 708 -17 0
-226 -708 0
-226 17 0
-227 710 230 0
-227 228 230 0
227 -230 0
227 -710 -228 0
228 711 -209 0
228 -711 -229 0
-228 -711 229 0
-228 711 209 0
229 -93 136 0
-229 93 0
-229 -136 0
230 -711 -208 0
230 711 -212 0
-230 711 212 0
-230 -711 208 0
-231 232 246 270 0
-231 232 246 -261 0
231 -232 0
231 -246 0
231 261 -270 0
232 233 -239 0
232 -708 233 -242 0
-232 -233 0
-232 239 242 0
-232 708 239 0
233 21 -234 0
-233 -21 0
-233 234 0
234 -708 -198 0
234 708 -235 0
-234 708 235 0
-234 -708 198 0
235 709 -236 0
235 -709 -238 0
-235 -709 238 0
-235 709 236 0
236 710 -237 0
236 -710 -171 0
-236 -710 171 0
-236 710 237 0
-237 669 711 0
-237 670 -711 0
237 -670 -711 0
237 -669 711 0
238 -710 -174 0
238 710 -172 0
-238 710 172 0
-238 -710 174 0
239 709 -240 0
239 -709 -241 0
-239 -709 241 0
-239 709 240 0
240 710 -182 0
240 -710 -185 0
-240 -710 185 0
-240 710 182 0
241 710 -186 0
241 -710 -189 0
-241 -710 189 0
-241 710 186 0
242 709 -243 0
242 -709 -244 0
-242 -709 244 0
-242 709 243 0
243 710 -190 0
243 -710 -192 0
-243 -710 192 0
-243 710 190 0
244 710 -193 0
244 -710 -245 0
-244 -710 245 0
-244 710 193 0
245 711 -107 0
245 -711 -116 0
-245 -711 116 0
-245 711 107 0
246 247 -260 0
246 -708 247 -253 0
-246 -247 0
-246 253 260 0
-246 708 260 0
247 21 -248 0
-247 -21 0
-247 248 0
248 708 -249 0
248 -708 -252 0
-248 -708 252 0
-248 708 249 0
249 -709 -170 0
249 709 -250 0
-249 709 250 0
-249 -709 170 0
250 710 -251 0
250 -710 -237 0
-250 -710 237 0
-250 710 251 0
-251 667 711 0
-251 668 -711 0
251 -668 -711 0
251 -667 711 0
-252 709 173 0
-252 -709 113 0
252 -709 -113 0
252 709 -173 0
253 709 -191 0
253 -709 -254 0
-253 -709 254 0
-253 709 191 0
254 710 -245 0
254 -710 -255 0
-254 -710 255 0
-254 710 245 0
255 711 -124 0
255 -711 -256 0
-255 -711 256 0
-255 711 124 0
256 708 44 -257 0
256 -708 44 -141 0
-256 -44 0
-256 708 257 0
-256 -708 141 0
-257 -709 57 0
-257 709 258 0
257 -709 -57 0
257 709 -258 0
-258 -710 103 0
-258 710 259 0
258 710 -259 0
258 -710 -103 0
-259 652 711 0
-259 654 -711 0
259 -654 -711 0
259 -652 711 0
260 709 -184 0
260 -709 -188 0
-260 -709 188 0
-260 709 184 0
261 21 -262 0
-261 -21 0
-261 262 0
262 708 -263 0
262 -708 -267 0
-262 -708 267 0
-262 708 263 0
263 709 -264 0
263 -709 -266 0
-263 -709 266 0
-263 709 264 0
264 710 -265 0
264 -710 -12 0
-264 -710 12 0
-264 710 265 0
-265 666 711 0
-265 667 -711 0
265 -667 -711 0
265 -666 711 0
266 -710 -15 0
266 710 -13 0
-266 710 13 0
-266 -710 15 0
267 709 -268 0
267 -709 -269 0
-267 -709 269 0
-267 709 268 0
268 -710 -19 0
268 710 -16 0
-268 710 16 0
-268 -710 19 0
269 -678 710 711 0
269 -679 710 -711 0
-269 -710 0
-269 679 -711 0
-269 678 711 0
-270 -709 271 282 0
-270 709 271 281 0
270 -271 0
270 -709 -282 0
270 709 -281 0
271 -708 -272 0
-271 708 0
-271 272 0
272 709 -273 0
272 -709 -274 0
-272 -709 274 0
-272 709 273 0
273 710 -73 0
273 -710 -98 0
-273 -710 98 0
-273 710 73 0
274 710 -115 0
274 -710 -275 0
-274 -710 275 0
-274 710 115 0
275 711 -256 0
275 -711 -276 0
-275 -711 276 0
-275 711 256 0
276 708 44 -277 0
276 -708 44 -143 0
-276 -44 0
-276 708 277 0
-276 -708 143 0
-277 -709 67 0
-277 709 278 0
277 -709 -67 0
277 709 -278 0
-278 -710 110 0
-278 710 279 280 0
278 710 -280 0
278 -710 -110 0
278 710 -279 0
279 -653 -711 0
-279 653 0
-279 711 0
280 -651 711 0
-280 651 0
-280 -711 0
281 710 -144 0
281 -710 -150 0
-281 -710 150 0
-281 710 144 0
282 -710 -42 0
282 710 -157 0
-282 710 157 0
-282 -710 42 0
283 284 -287 0
283 -709 -178 284 0
-283 -284 0
-283 178 287 0
-283 709 287 0
284 24 -285 286 0
-284 -24 0
-284 285 0
-284 -286 0
285 708 -252 0
-285 -708 0
-285 252 0
-286 682 52 167 224 0
286 -682 0
286 -224 0
286 -167 0
286 -52 0
287 710 -207 0
287 -710 -288 0
-287 -710 288 0
-287 710 207 0
288 -711 -221 0
288 711 -229 0
-288 711 229 0
-288 -711 221 0
289 290 -296 0
289 -709 290 -297 0
-289 -290 0
-289 296 297 0
-289 709 296 0
290 201 206 291 -295 0
-290 295 0
-290 -201 0
-290 -291 0
-290 -206 0
-291 689 37 167 292 0
291 -689 0
291 -292 0
291 -167 0
291 -37 0
-292 688 35 293 294 0
292 -688 0
292 -294 0
292 -293 0
292 -35 0
-293 686 687 0
293 -686 0
293 -687 0
-294 690 691 706 0
294 -690 0
294 -706 0
294 -691 0
295 708 -267 0
-295 -708 0
-295 267 0
296 -710 -220 0
296 710 -228 0
-296 710 228 0
-296 -710 220 0
297 -710 -134 0
297 710 -222 0
-297 710 222 0
-297 -710 134 0
-298 299 -304 310 0
-298 299 309 310 0
298 -299 0
298 -310 0
298 304 -309 0
299 709 300 -303 0
299 -709 -240 300 0
-299 -300 0
-299 -709 240 0
-299 709 303 0
300 4 215 291 -301 0
-300 301 0
-300 -4 0
-300 -291 0
-300 -215 0
301 708 -302 0
-301 -708 0
-301 302 0
302 -709 -199 0
302 709 -238 0
-302 -709 199 0
-302 709 238 0
303 -710 -179 0
303 710 -288 0
-303 710 288 0
-303 -710 179 0
304 204 -305 306 308 0
-304 -308 0
-304 -204 0
-304 -306 0
-304 305 0
305 709 -269 0
-305 -709 0
-305 269 0
-306 51 166 307 0
306 -51 0
306 -166 0
306 -307 0
-307 701 33 49 0
307 -49 0
307 -33 0
307 -701 0
-308 700 140 0
308 -700 0
308 -140 0
-309 -136 0
-309 160 163 0
-309 711 160 0
309 136 -160 0
309 -711 136 -163 0
-310 680 311 348 0
-310 311 342 348 0
310 -348 0
310 -311 0
310 -680 -342 0
-311 312 -327 0
-311 312 332 333 0
311 -312 0
311 327 -333 0
311 327 -332 0
312 313 -318 0
312 -708 313 -319 0
-312 -313 0
-312 318 319 0
-312 708 318 0
313 21 -314 0
-313 -21 0
-313 314 0
314 -708 -302 0
314 708 -315 0
-314 708 315 0
-314 -708 302 0
315 -709 -236 0
315 709 -316 0
-315 709 316 0
-315 -709 236 0
316 710 -317 0
316 -710 -251 0
-316 -710 251 0
-316 710 317 0
-317 665 711 0
-317 666 -711 0
317 -666 -711 0
317 -665 711 0
318 709 -241 0
318 -709 -243 0
-318 -709 243 0
-318 709 241 0
319 709 -244 0
319 -709 -320 0
-319 -709 320 0
-319 709 244 0
320 710 -255 0
320 -710 -321 0
-320 -710 321 0
-320 710 255 0
321 711 -276 0
321 -711 -322 0
-321 -711 322 0
-321 711 276 0
322 708 44 -323 0
322 -708 44 -146 0
-322 -44 0
-322 708 323 0
-322 -708 146 0
-323 -709 79 0
-323 709 324 0
323 -709 -79 0
323 709 -324 0
-324 -710 119 0
-324 710 325 326 0
324 710 -326 0
324 -710 -119 0
324 710 -325 0
325 -650 711 0
-325 650 0
-325 -711 0
326 -652 -711 0
-326 652 0
-326 711 0
327 21 -328 0
-327 -21 0
-327 328 0
328 -708 -217 0
328 708 -329 0
-328 708 329 0
-328 -708 217 0
329 -709 -11 0
329 709 -330 0
-329 709 330 0
-329 -709 11 0
330 710 -331 0
330 -710 -265 0
-330 -710 265 0
-330 710 331 0
-331 664 711 0
-331 665 -711 0
331 -665 -711 0
331 -664 711 0
332 -709 -41 0
332 709 -149 0
-332 709 149 0
-332 -709 41 0
333 -708 -334 0
-333 708 0
-333 334 0
334 709 -97 0
334 -709 -335 0
-334 -709 335 0
-334 709 97 0
335 710 -275 0
335 -710 -336 0
-335 -710 336 0
-335 710 275 0
336 711 -322 0
336 -711 -337 0
-336 -711 337 0
-336 711 322 0
337 708 44 -338 0
337 -708 44 -148 0
-337 -44 0
-337 708 338 0
-337 -708 148 0
-338 -709 90 0
-338 709 339 0
338 -709 -90 0
338 709 -339 0
-339 -710 127 0
-339 710 340 341 0
339 710 -341 0
339 -710 -127 0
339 710 -340 0
340 -651 -711 0
-340 651 0
-340 711 0
341 -649 711 0
-341 649 0
-341 -711 0
342 -155 307 343 345 0
-342 -345 0
-342 155 0
-342 -343 0
-342 -307 0
-343 681 682 167 344 0
343 -681 0
343 -344 0
343 -167 0
343 -682 0
-344 686 687 692 693 0
344 -693 0
344 -692 0
344 -686 0
344 -687 0
-345 700 140 346 347 0
345 -700 0
345 -347 0
345 -346 0
345 -140 0
-346 688 205 0
346 -688 0
346 -205 0
-347 694 52 0
347 -694 0
347 -52 0
-348 349 526 562 0
-348 349 -525 526 0
348 -349 0
348 -526 0
348 525 -562 0
-349 350 524 0
-349 -708 350 0
-349 350 -523 0
349 -350 0
349 708 523 -524 0
350 708 351 -516 0
-350 516 0
-350 -351 0
-350 -708 0
351 709 -352 0
351 -709 -492 0
-351 -709 492 0
-351 709 352 0
352 710 -353 0
352 -710 -464 0
-352 -710 464 0
-352 710 353 0
353 711 -354 0
353 -711 -443 0
-353 -711 443 0
-353 711 354 0
354 -707 21 0
354 21 -355 0
-354 -21 0
-354 707 355 0
355 708 -356 0
355 -708 -427 0
-355 -708 427 0
-355 708 356 0
356 709 -357 0
356 -709 -405 0
-356 -709 405 0
-356 709 357 0
357 710 -358 0
357 -710 -391 0
-357 -710 391 0
-357 710 358 0
358 711 -359 0
358 -711 -377 0
-358 -711 377 0
-358 711 359 0
359 707 360 -365 0
359 -707 -234 360 0
-359 -360 0
-359 707 365 0
-359 -707 234 0
-360 680 687 51 361 0
360 -680 0
360 -361 0
360 -51 0
360 -687 0
-361 681 22 362 363 0
361 -681 0
361 -363 0
361 -362 0
361 -22 0
-362 706 346 0
362 -706 0
362 -346 0
-363 33 364 0
363 -33 0
363 -364 0
-364 30 37 39 0
364 -30 0
364 -37 0
364 -39 0
-365 708 366 0
-365 -708 373 0
365 -708 -373 0
365 708 -366 0
-366 709 370 0
-366 -709 367 0
366 -709 -367 0
366 709 -370 0
367 -710 -369 0
367 710 -368 0
-367 710 368 0
-367 -710 369 0
-368 657 711 0
-368 658 -711 0
368 -658 -711 0
368 -657 711 0
-369 659 711 0
-369 660 -711 0
369 -660 -711 0
369 -659 711 0
370 -710 -372 0
370 710 -371 0
-370 710 371 0
-370 -710 372 0
-371 653 711 0
-371 654 -711 0
371 -654 -711 0
371 -653 711 0
-372 655 711 0
-372 656 -711 0
372 -656 -711 0
372 -655 711 0
373 -709 -316 0
373 709 -374 0
-373 709 374 0
-373 -709 316 0
374 -710 -376 0
374 710 -375 0
-374 710 375 0
-374 -710 376 0
-375 661 711 0
-375 662 -711 0
375 -662 -711 0
375 -661 711 0
-376 663 711 0
-376 664 -711 0
376 -664 -711 0
376 -663 711 0
377 -707 360 -389 0
377 707 360 -378 0
-377 -360 0
-377 -707 389 0
-377 707 378 0
-378 708 379 0
-378 -708 386 0
378 -708 -386 0
378 708 -379 0
-379 709 383 0
-379 -709 380 0
379 -709 -380 0
379 709 -383 0
380 -710 -382 0
380 710 -381 0
-380 710 381 0
-380 -710 382 0
-381 658 711 0
-381 659 -711 0
381 -659 -711 0
381 -658 711 0
-382 660 711 0
-382 661 -711 0
382 -661 -711 0
382 -660 711 0
383 -710 -385 0
383 710 -384 0
-383 710 384 0
-383 -710 385 0
-384 654 711 0
-384 655 -711 0
384 -655 -711 0
384 -654 711 0
-385 656 711 0
-385 657 -711 0
385 -657 -711 0
385 -656 711 0
386 -709 -264 0
386 709 -387 0
-386 709 387 0
-386 -709 264 0
387 710 -388 0
387 -710 -331 0
-387 -710 331 0
-387 710 388 0
-388 662 711 0
-388 663 -711 0
388 -663 -711 0
388 -662 711 0
389 -708 -305 0
389 708 -390 0
-389 708 390 0
-389 -708 305 0
390 709 -266 0
390 -709 -268 0
-390 -709 268 0
-390 709 266 0
391 711 -392 0
391 -711 -400 0
-391 -711 400 0
-391 711 392 0
392 165 362 -393 399 0
-392 -399 0
-392 -165 0
-392 -362 0
-392 393 0
-393 707 -708 397 0
-393 707 708 394 0
393 -707 0
393 -708 -397 0
393 708 -394 0
394 -709 -395 0
394 709 -396 0
-394 709 396 0
-394 -709 395 0
395 -710 -375 0
395 710 -369 0
-395 710 369 0
-395 -710 375 0
396 710 -372 0
396 -710 -368 0
-396 -710 368 0
-396 710 372 0
397 -709 -250 0
397 709 -398 0
-397 709 398 0
-397 -709 250 0
398 710 -376 0
398 -710 -317 0
-398 -710 317 0
-398 710 376 0
-399 707 51 363 0
-399 51 -168 363 0
399 -363 0
399 -51 0
399 -707 168 0
400 707 360 -401 0
400 -707 -216 360 0
-400 -360 0
-400 707 401 0
-400 -707 216 0
-401 708 402 0
-401 -708 329 0
401 -708 -329 0
401 708 -402 0
402 709 -403 0
402 -709 -404 0
-402 -709 404 0
-402 709 403 0
403 710 -385 0
403 -710 -381 0
-403 -710 381 0
-403 710 385 0
404 -710 -388 0
404 710 -382 0
-404 710 382 0
-404 -710 388 0
405 710 -406 0
405 -710 -416 0
-405 -710 416 0
-405 710 406 0
406 711 -407 0
406 -711 -410 0
-406 -711 410 0
-406 711 407 0
407 -140 360 409 0
407 360 -408 409 0
-407 -409 0
-407 -360 0
-407 140 408 0
408 709 -367 0
408 -709 -374 0
-408 -709 374 0
-408 709 367 0
-409 707 708 0
-409 -301 -315 0
-409 707 -315 0
-409 708 -301 0
409 -707 301 0
409 -708 315 0
410 32 51 411 -412 0
-410 412 0
-410 -32 0
-410 -411 0
-410 -51 0
-411 708 23 138 0
-411 23 138 -263 0
411 -138 0
411 -23 0
411 -708 263 0
412 691 24 413 -414 0
-412 -691 0
-412 414 0
-412 -413 0
-412 -24 0
-413 706 363 0
413 -706 0
413 -363 0
414 707 -415 0
414 -707 -295 0
414 707 -708 0
-414 -707 295 0
-414 707 708 415 0
415 709 -380 0
415 -709 -387 0
-415 -709 387 0
-415 709 380 0
416 711 -417 0
416 -711 -424 0
-416 -711 424 0
-416 711 417 0
417 708 418 -419 0
417 -249 418 -419 0
-417 419 0
-417 -418 0
-417 -708 249 0
418 -707 285 0
-418 707 0
-418 -285 0
419 706 33 420 -421 0
-419 -706 0
-419 421 0
-419 -420 0
-419 -33 0
-420 23 24 205 0
420 -23 0
420 -24 0
420 -205 0
421 688 344 347 -422 0
-421 -688 0
-421 422 0
-421 -347 0
-421 -344 0
422 685 364 -423 0
422 685 -140 364 0
-422 -685 0
-422 -364 0
-422 140 423 0
423 709 -395 0
423 -709 -398 0
-423 -709 398 0
-423 709 395 0
424 707 360 -425 0
424 -707 -226 360 0
-424 -360 0
-424 707 425 0
-424 -707 226 0
-425 708 426 0
-425 -708 10 0
425 -708 -10 0
425 708 -426 0
426 -709 -330 0
426 709 -404 0
-426 709 404 0
-426 -709 330 0
427 709 -428 0
427 -709 -440 0
-427 -709 440 0
-427 709 428 0
428 710 -429 0
428 -710 -436 0
-428 -710 436 0
-428 710 429 0
429 711 -430 0
429 -711 -432 0
-429 -711 432 0
-429 711 430 0
430 707 360 -431 0
430 -197 360 -431 0
-430 431 0
-430 -360 0
-430 -707 197 0
431 -708 -235 0
431 -707 708 0
431 708 -373 0
-431 -708 235 0
-431 707 708 373 0
432 708 -433 0
432 707 -390 -433 0
-432 433 0
-432 -708 390 0
-432 -707 -708 0
433 694 413 -434 435 0
-433 -694 0
-433 -435 0
-433 434 0
-433 -413 0
434 -140 225 344 0
434 225 344 -386 0
-434 -344 0
-434 -225 0
-434 140 386 0
-435 -305 346 0
-435 707 346 0
435 -346 0
435 -707 305 0
436 -711 -327 0
436 711 -437 0
-436 711 437 0
-436 -711 327 0
437 708 -438 0
437 707 -169 -438 0
-437 438 0
-437 -708 169 0
-437 -707 -708 0
438 -140 204 439 0
438 204 -397 439 0
-438 -439 0
-438 -204 0
-438 140 397 0
-439 700 707 306 0
-439 700 -155 306 0
439 -700 0
439 -306 0
439 -707 155 0
440 710 -441 0
440 -710 -442 0
-440 -710 442 0
-440 710 441 0
441 -711 -261 0
441 711 -313 0
-441 711 313 0
-441 -711 261 0
442 -711 -8 0
442 711 -247 0
-442 711 247 0
-442 -711 8 0
443 -707 21 0
443 21 -444 0
-443 -21 0
-443 707 444 0
444 708 -445 0
444 -708 -457 0
-444 -708 457 0
-444 708 445 0
445 709 -446 0
445 -709 -454 0
-445 -709 454 0
-445 709 446 0
446 710 -447 0
446 -710 -453 0
-446 -710 453 0
-446 710 447 0
447 -711 -359 0
447 711 -448 0
-447 711 448 0
-447 -711 359 0
448 707 360 -449 0
448 -707 -9 360 0
-448 -360 0
-448 707 449 0
-448 -707 9 0
-449 -708 426 0
-449 708 450 0
449 -708 -426 0
449 708 -450 0
-450 709 451 0
-450 -709 403 0
450 -709 -403 0
450 709 -451 0
451 710 -452 0
451 -710 -384 0
-451 -710 384 0
-451 710 452 0
-452 652 711 0
-452 653 -711 0
452 -653 -711 0
452 -652 711 0
453 711 -377 0
453 -711 -392 0
-453 -711 392 0
-453 711 377 0
454 710 -455 0
454 -710 -456 0
-454 -710 456 0
-454 710 455 0
455 711 -400 0
455 -711 -407 0
-455 -711 407 0
-455 711 400 0
456 711 -410 0
456 -711 -417 0
-456 -711 417 0
-456 711 410 0
457 709 -458 0
457 -709 -461 0
-457 -709 461 0
-457 709 458 0
458 710 -459 0
458 -710 -460 0
-458 -710 460 0
-458 710 459 0
459 711 -424 0
459 -711 -430 0
-459 -711 430 0
-459 711 424 0
460 711 -432 0
460 -711 -437 0
-460 -711 437 0
-460 711 432 0
461 710 -462 0
461 -710 -463 0
-461 -710 463 0
-461 710 462 0
462 -711 -313 0
462 711 -327 0
-462 711 327 0
-462 -711 313 0
463 -711 -247 0
463 711 -261 0
-463 711 261 0
-463 -711 247 0
464 711 -465 0
464 -711 -479 0
-464 -711 479 0
-464 711 465 0
465 -707 21 0
465 21 -466 0
-465 -21 0
-465 707 466 0
466 708 -467 0
466 -708 -476 0
-466 -708 476 0
-466 708 467 0
467 709 -468 0
467 -709 -475 0
-467 -709 475 0
-467 709 468 0
468 -710 -358 0
468 710 -469 0
-468 710 469 0
-468 -710 358 0
469 -711 -448 0
469 711 -470 0
-469 711 470 0
-469 -711 448 0
470 707 360 -471 0
470 -707 -248 360 0
-470 -360 0
-470 707 471 0
-470 -707 248 0
-471 -708 423 0
-471 708 472 0
471 -708 -423 0
471 708 -472 0
-472 -709 396 0
-472 709 473 0
472 -709 -396 0
472 709 -473 0
-473 -710 371 0
-473 710 474 0
473 710 -474 0
473 -710 -371 0
-474 651 711 0
-474 652 -711 0
474 -652 -711 0
474 -651 711 0
475 710 -391 0
475 -710 -406 0
-475 -710 406 0
-475 710 391 0
476 709 -477 0
476 -709 -478 0
-476 -709 478 0
-476 709 477 0
477 710 -416 0
477 -710 -429 0
-477 -710 429 0
-477 710 416 0
478 710 -436 0
478 -710 -441 0
-478 -710 441 0
-478 710 436 0
479 -707 21 0
479 21 -480 0
-479 -21 0
-479 707 480 0
480 708 -481 0
480 -708 -489 0
-480 -708 489 0
-480 708 481 0
481 709 -482 0
481 -709 -488 0
-481 -709 488 0
-481 709 482 0
482 -710 -447 0
482 710 -483 0
-482 710 483 0
-482 -710 447 0
483 -711 -470 0
483 711 -484 0
-483 711 484 0
-483 -711 470 0
484 707 360 -485 0
484 -707 -262 360 0
-484 -360 0
-484 707 485 0
-484 -707 262 0
-485 -708 415 0
-485 708 486 0
485 -708 -415 0
485 708 -486 0
-486 -709 383 0
-486 709 487 0
486 -709 -383 0
486 709 -487 0
-487 -710 452 0
-487 710 325 340 0
487 710 -325 0
487 -710 -452 0
487 710 -340 0
488 710 -453 0
488 -710 -455 0
-488 -710 455 0
-488 710 453 0
489 709 -490 0
489 -709 -491 0
-489 -709 491 0
-489 709 490 0
490 710 -456 0
490 -710 -459 0
-490 -710 459 0
-490 710 456 0
491 710 -460 0
491 -710 -462 0
-491 -710 462 0
-491 710 460 0
492 710 -493 0
-492 -710 0
-492 493 0
493 711 -494 0
493 -711 -505 0
-493 -711 505 0
-493 711 494 0
494 -707 21 0
494 21 -495 0
-494 -21 0
-494 707 495 0
495 708 -496 0
495 -708 -504 0
-495 -708 504 0
-495 708 496 0
496 -709 -357 0
496 709 -497 0
-496 709 497 0
-496 -709 357 0
497 -710 -469 0
497 710 -498 0
-497 710 498 0
-497 -710 469 0
498 -711 -484 0
498 711 -499 0
-498 711 499 0
-498 -711 484 0
499 707 360 -500 0
499 -707 -314 360 0
-499 -360 0
-499 707 500 0
-499 -707 314 0
-500 -708 408 0
-500 708 501 0
500 -708 -408 0
500 708 -501 0
-501 709 503 0
-501 -709 370 0
-501 709 -502 0
501 -709 -370 0
501 709 502 -503 0
502 652 -710 -711 0
502 651 -710 711 0
-502 710 0
-502 -651 711 0
-502 -652 -711 0
-503 650 710 -711 0
-503 649 710 711 0
503 -710 0
503 -649 711 0
503 -650 -711 0
504 709 -405 0
504 -709 -428 0
-504 -709 428 0
-504 709 405 0
505 -707 21 0
505 21 -506 0
-505 -21 0
-505 707 506 0
506 708 -507 0
506 -708 -515 0
-506 -708 515 0
-506 708 507 0
507 -709 -446 0
507 709 -508 0
-507 709 508 0
-507 -709 446 0
508 -710 -483 0
508 710 -509 0
-508 -710 483 0
-508 710 509 0
-509 711 -514 0
-509 -711 499 0
-509 711 510 0
509 -711 -499 0
509 711 -510 514 0
510 -707 360 0
510 360 -511 0
-510 -360 0
-510 707 511 0
-511 708 512 0
-511 -708 402 0
511 -708 -402 0
511 708 -512 0
512 709 -513 0
512 -709 -451 0
512 709 -710 0
-512 -709 451 0
-512 709 710 513 0
513 -648 711 0
-513 648 0
-513 -711 0
514 -707 328 0
-514 707 0
-514 -328 0
515 709 -454 0
515 -709 -458 0
-515 -709 458 0
-515 709 454 0
516 709 -320 0
516 -709 -517 0
-516 -709 517 0
-516 709 320 0
517 710 -518 0
-517 -710 0
-517 518 0
518 711 -337 0
518 -711 -519 0
-518 -711 519 0
-518 711 337 0
519 708 44 -520 0
519 -708 44 -152 0
-519 -44 0
-519 708 520 0
-519 -708 152 0
-520 709 -522 0
-520 -709 102 0
-520 709 521 0
520 -709 -102 0
520 709 -521 522 0
-521 650 710 -711 0
-521 648 710 711 0
521 -710 0
521 -648 711 0
521 -650 -711 0
522 654 -710 -711 0
522 652 -710 711 0
-522 710 0
-522 -652 711 0
-522 -654 -711 0
523 709 -492 0
-523 -709 0
-523 492 0
524 709 -517 0
-524 -709 0
-524 517 0
525 3 25 46 -389 0
-525 389 0
-525 -3 0
-525 -46 0
-525 -25 0
-526 527 536 0
-526 -530 536 0
-526 -708 536 0
526 -536 0
526 708 -527 530 0
527 709 -335 0
527 -709 -528 0
-527 -709 528 0
-527 709 335 0
528 710 -529 0
-528 -710 0
-528 529 0
529 711 -519 0
-529 -711 0
-529 519 0
530 709 -531 0
530 -709 -534 0
-530 -709 534 0
-530 709 531 0
531 710 -532 0
531 -710 -533 0
-531 -710 533 0
-531 710 532 0
532 711 -443 0
532 -711 -465 0
-532 -711 465 0
-532 711 443 0
533 711 -479 0
533 -711 -494 0
-533 -711 494 0
-533 711 479 0
534 710 -535 0
-534 -710 0
-534 535 0
535 711 -505 0
-535 -711 0
-535 505 0
-536 537 -558 0
-536 -708 537 0
-536 537 556 0
536 -537 0
536 708 -556 558 0
537 708 538 -554 0
-537 554 0
-537 -538 0
-537 -708 0
538 709 -539 0
538 -709 -553 0
-538 -709 553 0
-538 709 539 0
539 -710 -353 0
539 710 -540 0
-539 710 540 0
-539 -710 353 0
540 711 -541 0
540 -711 -547 0
-540 -711 547 0
-540 711 541 0
541 -707 21 0
541 21 -542 0
-541 -21 0
-541 707 542 0
542 708 -543 0
542 -708 -544 0
-542 -708 544 0
-542 708 543 0
543 709 -475 0
543 -709 -477 0
-543 -709 477 0
-543 709 475 0
544 709 -478 0
544 -709 -545 0
-544 -709 545 0
-544 709 478 0
545 710 -442 0
545 -710 -546 0
-545 -710 546 0
-545 710 442 0
546 711 -233 0
546 -711 -525 0
-546 -711 525 0
-546 711 233 0
547 -707 21 0
547 21 -548 0
-547 -21 0
-547 707 548 0
548 708 -549 0
548 -708 -550 0
-548 -708 550 0
-548 708 549 0
549 709 -488 0
549 -709 -490 0
-549 -709 490 0
-549 709 488 0
550 709 -491 0
550 -709 -551 0
-550 -709 551 0
-550 709 491 0
551 710 -463 0
551 -710 -552 0
-551 -710 552 0
-551 710 463 0
552 711 -8 0
552 -711 -233 0
-552 -711 233 0
-552 711 8 0
553 710 -464 0
553 -710 -493 0
-553 -710 493 0
-553 710 464 0
554 709 -254 0
554 -709 -555 0
-554 -709 555 0
-554 709 254 0
555 710 -321 0
555 -710 -518 0
-555 -710 518 0
-555 710 321 0
556 709 -274 0
556 -709 -557 0
-556 -709 557 0
-556 709 274 0
557 710 -336 0
557 -710 -529 0
-557 -710 529 0
-557 710 336 0
558 709 -559 0
558 -709 -561 0
-558 -709 561 0
-558 709 559 0
559 -710 -532 0
559 710 -560 0
-559 710 560 0
-559 -710 532 0
560 -711 -354 0
560 711 -547 0
-560 711 547 0
-560 -711 354 0
561 710 -533 0
561 -710 -535 0
-561 -710 535 0
-561 710 533 0
562 708 -563 0
562 -708 -564 0
-562 -708 564 0
-562 708 563 0
563 -709 -281 0
563 709 -297 0
-563 709 297 0
-563 -709 281 0
564 -709 -273 0
564 709 -282 0
-564 709 282 0
-564 -709 273 0
-565 -566 575 625 0
-565 574 575 625 0
565 -625 0
565 -575 0
565 566 -574 0
566 708 -567 0
566 -708 709 -534 0
-566 -708 -709 0
-566 708 567 0
-566 -708 534 0
567 -709 -531 0
567 709 -568 0
-567 709 568 0
-567 -709 531 0
568 -710 -560 0
568 710 -569 0
-568 710 569 0
-568 -710 560 0
569 -711 -541 0
569 711 -570 0
-569 711 570 0
-569 -711 541 0
570 707 -708 -571 0
570 707 708 -515 0
-570 -707 0
-570 -708 571 0
-570 708 515 0
571 709 -461 0
571 -709 -572 0
-571 -709 572 0
-571 709 461 0
572 710 -552 0
572 -710 -573 0
-572 -710 573 0
-572 710 552 0
573 -711 -164 0
573 711 -525 0
-573 711 525 0
-573 -711 164 0
574 708 -334 0
574 -708 709 -528 0
-574 -708 -709 0
-574 708 334 0
-574 -708 528 0
-575 576 615 624 0
-575 576 615 -621 0
575 -576 0
575 -615 0
575 621 -624 0
576 708 -187 577 0
576 -708 -554 577 0
-576 -577 0
-576 -708 554 0
-576 708 187 0
577 -708 -538 0
577 708 -578 0
-577 708 578 0
-577 -708 538 0
578 709 -579 0
578 -709 -606 0
-578 -709 606 0
-578 709 579 0
579 710 -580 0
579 -710 -597 0
-579 -710 597 0
-579 710 580 0
580 -711 -589 0
580 711 21 -581 0
-580 -711 589 0
-580 711 -21 0
-580 711 581 0
-581 707 -708 582 0
-581 707 708 544 0
581 -707 0
581 -708 -582 0
581 708 -544 0
582 709 -583 0
582 -709 -586 0
-582 -709 586 0
-582 709 583 0
583 710 -584 0
583 -710 -585 0
-583 -710 585 0
-583 710 584 0
584 711 -164 0
584 -711 -214 0
-584 -711 214 0
-584 711 164 0
585 -711 -290 0
585 711 -300 0
-585 711 300 0
-585 -711 290 0
586 710 -587 0
586 -710 -588 0
-586 -710 588 0
-586 710 587 0
587 -711 -223 0
587 711 -284 0
-587 711 284 0
-587 -711 223 0
588 711 -196 0
588 -711 -304 0
-588 -711 304 0
-588 711 196 0
589 -707 21 0
589 21 -590 0
-589 -21 0
-589 707 590 0
590 708 -550 0
590 -708 -591 0
-590 -708 591 0
-590 708 550 0
591 709 -592 0
591 -709 -594 0
-591 -709 594 0
-591 709 592 0
592 710 -573 0
592 -710 -593 0
-592 -710 593 0
-592 710 573 0
593 711 -214 0
593 -711 -300 0
-593 -711 300 0
-593 711 214 0
594 710 -595 0
594 -710 -596 0
-594 -710 596 0
-594 710 595 0
595 -711 -284 0
595 711 -290 0
-595 711 290 0
-595 -711 284 0
596 -711 -196 0
596 711 -223 0
-596 711 223 0
-596 -711 196 0
597 711 -598 0
597 -711 -603 0
-597 -711 603 0
-597 711 598 0
598 -707 21 0
598 21 -599 0
-598 -21 0
-598 707 599 0
599 708 -427 0
599 -708 -600 0
-599 -708 600 0
-599 708 427 0
600 709 -601 0
600 -709 -602 0
-600 -709 602 0
-600 709 601 0
601 710 -546 0
601 -710 -584 0
-601 -710 584 0
-601 710 546 0
602 710 -585 0
602 -710 -587 0
-602 -710 587 0
-602 710 585 0
603 707 -708 -604 0
603 707 708 -457 0
-603 -707 0
-603 -708 604 0
-603 708 457 0
604 709 -572 0
604 -709 -605 0
-604 -709 605 0
-604 709 572 0
605 710 -593 0
605 -710 -595 0
-605 -710 595 0
-605 710 593 0
606 710 -607 0
606 -710 -612 0
-606 -710 612 0
-606 710 607 0
607 711 -608 0
607 -711 -610 0
-607 -711 610 0
-607 711 608 0
608 707 -708 -609 0
608 707 708 -476 0
-608 -707 0
-608 -708 609 0
-608 708 476 0
609 709 -545 0
609 -709 -583 0
-609 -709 583 0
-609 709 545 0
610 707 -708 -611 0
610 707 708 -489 0
-610 -707 0
-610 -708 611 0
-610 708 489 0
611 709 -551 0
611 -709 -592 0
-611 -709 592 0
-611 709 551 0
612 -711 -570 0
612 711 -613 0
-612 711 613 0
-612 -711 570 0
613 707 -708 -614 0
613 707 708 -504 0
-613 -707 0
-613 -708 614 0
-613 708 504 0
614 709 -440 0
614 -709 -601 0
-614 -709 601 0
-614 709 440 0
615 708 -40 616 0
615 -708 -527 616 0
-615 -616 0
-615 -708 527 0
-615 708 40 0
616 -708 -530 0
616 708 -617 0
-616 708 617 0
-616 -708 530 0
617 -709 -568 0
617 709 -618 0
-617 709 618 0
-617 -709 568 0
618 710 -619 0
618 -710 -620 0
-618 -710 620 0
-618 710 619 0
619 711 -603 0
619 -711 -608 0
-619 -711 608 0
-619 711 603 0
620 711 -610 0
620 -711 -613 0
-620 -711 613 0
-620 711 610 0
621 -708 -523 0
621 708 -622 0
-621 708 622 0
-621 -708 523 0
622 -709 -352 0
622 709 -623 0
-622 709 623 0
-622 -709 352 0
623 -710 -540 0
623 710 -612 0
-623 710 612 0
-623 -710 540 0
624 708 -319 0
624 -708 -524 0
-624 -708 524 0
-624 708 319 0
-625 627 628 0
-625 -626 628 0
-625 -708 628 0
625 -628 0
625 708 626 -627 0
626 709 -561 0
-626 -709 0
-626 561 0
627 709 -557 0
-627 -709 0
-627 557 0
-628 629 633 641 645 0
628 -633 0
628 -645 0
628 -629 0
628 -641 0
629 708 -272 630 0
629 -708 -627 630 0
-629 -630 0
-629 -708 627 0
-629 708 272 0
630 -708 -626 0
630 708 -631 0
-630 708 631 0
-630 -708 626 0
631 -709 -559 0
631 709 -632 0
-631 709 632 0
-631 -709 559 0
632 -710 -569 0
632 710 -620 0
-632 710 620 0
-632 -710 569 0
-633 634 640 0
-633 -708 634 0
-633 634 -639 0
633 -634 0
633 708 639 -640 0
634 -708 -556 635 0
634 708 -564 635 0
-634 -635 0
-634 -708 556 0
-634 708 564 0
635 -708 -558 0
635 708 -636 0
-635 708 636 0
-635 -708 558 0
636 -709 -632 0
636 709 -637 0
-636 709 637 0
-636 -709 632 0
637 -710 -619 0
637 710 -638 0
-637 710 638 0
-637 -710 619 0
638 711 -589 0
638 -711 -598 0
-638 -711 598 0
-638 711 589 0
639 709 -553 0
-639 -709 0
-639 553 0
640 709 -555 0
-640 -709 0
-640 555 0
641 708 -242 642 0
641 -708 -516 642 0
-641 -642 0
-641 -708 516 0
-641 708 242 0
642 -708 -351 0
642 708 -643 0
-642 708 643 0
-642 -708 351 0
643 -709 -623 0
643 709 -644 0
-643 709 644 0
-643 -709 623 0
644 710 -597 0
644 -710 -607 0
-644 -710 607 0
-644 710 597 0
645 708 -253 646 0
645 -708 -640 646 0
-645 -646 0
-645 -708 640 0
-645 708 253 0
646 -708 -639 0
646 708 -647 0
-646 708 647 0
-646 -708 639 0
647 -709 -539 0
647 709 -606 0
-647 709 606 0
-647 -709 539 0
-712 0
2 0

